Ag  O
 1.0000000000000000
    15.0000000000000000    0.0000000000000000    0.0000000000000000
     0.0000000000000000   15.0000000000000000    0.0000000000000000
     0.0000000000000000    0.0000000000000000   15.0000000000000000
 Ag  O
  13   2
Cartesian
  4.2093699999999998  4.1847899999999996  8.7128499999999995
  2.5428000000000002  5.5110200000000003  6.9389799999999999
  4.7365100000000000  4.1617300000000004  5.9808000000000003
  2.1721699999999999  5.6512200000000004 10.0919000000000008
  3.4260199999999998  1.5104400000000000  9.6929400000000001
  3.3721899999999998  3.5330800000000000 11.6656999999999993
  5.8906400000000003  2.7991799999999998 10.4802999999999997
  5.2835700000000001  5.5536099999999999 10.8626000000000005
  5.8440200000000004  2.1188300000000000  7.7979099999999999
  4.4958400000000003  1.0836100000000000 12.1707999999999998
  1.3198399999999999  3.3415599999999999  8.4474699999999991
  5.3831699999999998  1.6011800000000000  5.1075499999999998
  3.2172100000000001  1.9390600000000000  6.7546400000000002
  0.9631030000000000  5.4112900000000002  8.4212399999999992
  1.8220099999999999  1.3294500000000000  8.2711299999999994
